(set-option :produce-models true); benchmark generated from python API
(set-info :status unknown)
(declare-fun l_1_0_8 () Real)
(declare-fun l_1_0_7 () Real)
(declare-fun l_1_0_6 () Real)
(declare-fun l_1_0_5 () Real)
(declare-fun l_1_0_4 () Real)
(declare-fun l_1_0_3 () Real)
(declare-fun l_1_0_2 () Real)
(declare-fun l_1_0_11 () Real)
(declare-fun l_1_0_10 () Real)
(declare-fun l_1_0_1 () Real)
(declare-fun _a_0_ () Real)
(declare-fun l_1_0_9 () Real)
(declare-fun _a_1_ () Real)
(declare-fun l_1_0_12 () Real)
(declare-fun _a_2_ () Real)
(declare-fun l_1_0_13 () Real)
(declare-fun _a_3_ () Real)
(declare-fun l_1_0_14 () Real)
(declare-fun _a_4_ () Real)
(declare-fun _a_5_ () Real)
(declare-fun l_1_1_8 () Real)
(declare-fun l_1_1_7 () Real)
(declare-fun l_1_1_5 () Real)
(declare-fun l_1_1_4 () Real)
(declare-fun l_1_1_3 () Real)
(declare-fun l_1_1_17 () Real)
(declare-fun l_1_1_16 () Real)
(declare-fun l_1_1_14 () Real)
(declare-fun l_1_1_12 () Real)
(declare-fun l_1_1_10 () Real)
(declare-fun l_1_1_1 () Real)
(declare-fun l_1_1_9 () Real)
(declare-fun l_1_1_6 () Real)
(declare-fun l_1_1_2 () Real)
(declare-fun l_1_1_13 () Real)
(declare-fun l_1_1_11 () Real)
(declare-fun l_1_1_15 () Real)
(declare-fun l_1_1_20 () Real)
(declare-fun l_1_1_19 () Real)
(declare-fun l_1_1_18 () Real)
(declare-fun l_1_2_8 () Real)
(declare-fun l_1_2_7 () Real)
(declare-fun l_1_2_6 () Real)
(declare-fun l_1_2_4 () Real)
(declare-fun l_1_2_17 () Real)
(declare-fun l_1_2_16 () Real)
(declare-fun l_1_2_14 () Real)
(declare-fun l_1_2_13 () Real)
(declare-fun l_1_2_12 () Real)
(declare-fun l_1_2_11 () Real)
(declare-fun l_1_2_1 () Real)
(declare-fun l_1_2_9 () Real)
(declare-fun l_1_2_5 () Real)
(declare-fun l_1_2_3 () Real)
(declare-fun l_1_2_2 () Real)
(declare-fun l_1_2_10 () Real)
(declare-fun l_1_2_18 () Real)
(declare-fun l_1_2_15 () Real)
(declare-fun l_1_2_20 () Real)
(declare-fun l_1_2_19 () Real)
(assert
 (let ((?x1559 (* l_1_0_11 l_1_0_11)))
 (let ((?x52 (- (- (- (- _a_0_ l_1_0_1) (* l_1_0_10 l_1_0_10)) ?x1559) (* 1.0 l_1_0_2))))
 (let ((?x46 (- (- (- (- ?x52 (* 1.0 l_1_0_3)) l_1_0_4) (* 1.0 l_1_0_5)) l_1_0_6)))
 (= (- (- ?x46 (* 1.0 l_1_0_7)) l_1_0_8) 0.0)))))
(assert
 (let ((?x1032 (* l_1_0_9 l_1_0_9)))
 (let ((?x490 (+ (+ (+ (+ _a_1_ (* 2.0 l_1_0_2)) l_1_0_3) l_1_0_5) l_1_0_7)))
 (= (- ?x490 ?x1032) 0.0))))
(assert
 (= (- _a_2_ (* (* 2.0 l_1_0_12) l_1_0_9)) 0.0))
(assert
 (let ((?x295 (- (- _a_3_ (* (* 2.0 l_1_0_10) l_1_0_12)) (* (* 2.0 l_1_0_11) l_1_0_13))))
 (= ?x295 0.0)))
(assert
 (let ((?x1477 (* 2.0 l_1_0_2)))
 (let ((?x1339 (* l_1_0_14 l_1_0_14)))
 (let ((?x1324 (- (- (- _a_4_ (* l_1_0_12 l_1_0_12)) (* l_1_0_13 l_1_0_13)) ?x1339)))
 (= (+ (+ (+ (+ ?x1324 ?x1477) l_1_0_3) l_1_0_5) l_1_0_7) 0.0)))))
(assert
 (= (- _a_5_ (* (* 2.0 l_1_0_10) l_1_0_9)) 0.0))
(assert
 (= (- l_1_0_2) 0.0))
(assert
 (= (* (- 2.0) l_1_0_2) 0.0))
(assert
 (= (- l_1_0_2) 0.0))
(assert
 (>= l_1_0_1 0.0))
(assert
 (>= l_1_0_2 0.0))
(assert
 (>= l_1_0_3 0.0))
(assert
 (>= l_1_0_4 0.0))
(assert
 (>= l_1_0_5 0.0))
(assert
 (>= l_1_0_6 0.0))
(assert
 (>= l_1_0_7 0.0))
(assert
 (>= l_1_0_8 0.0))
(assert
 (>= l_1_0_9 0.0))
(assert
 (>= l_1_0_11 0.0))
(assert
 (>= l_1_0_14 0.0))
(assert
 (let ((?x1128 (* 3.0 l_1_1_4)))
 (let ((?x1125 (* 9.0 l_1_1_3)))
 (let ((?x1122 (* l_1_1_17 l_1_1_17)))
 (let ((?x1120 (* l_1_1_16 l_1_1_16)))
 (let ((?x1174 (* _a_0_ l_1_1_9)))
 (let ((?x952 (* _a_0_ l_1_1_2)))
 (let ((?x1221 (- (+ (* (- _a_0_) l_1_1_11) (* (* 3.0 _a_0_) l_1_1_13)) ?x952)))
 (let ((?x1178 (- (- (+ ?x1221 (* (* 3.0 _a_0_) l_1_1_6)) ?x1174) (* (* l_1_1_1 _a_0_) _a_0_))))
 (let ((?x1127 (- (- (- (- (- (- ?x1178 l_1_1_10) l_1_1_12) l_1_1_14) ?x1120) ?x1122) ?x1125)))
 (let ((?x1134 (+ (+ (- (+ ?x1127 ?x1128) l_1_1_5) (* 3.0 l_1_1_7)) (* 3.0 l_1_1_8))))
 (= (+ ?x1134 1.0) 0.0))))))))))))
(assert
 (let ((?x927 (* _a_5_ l_1_1_9)))
 (let ((?x923 (* _a_5_ l_1_1_2)))
 (let ((?x918 (* _a_5_ l_1_1_11)))
 (let ((?x922 (+ (- (* (* (* (- 2.0) _a_0_) _a_5_) l_1_1_1) ?x918) (* (* 3.0 _a_5_) l_1_1_13))))
 (let ((?x37 (- (- (+ (- ?x922 ?x923) (* (* 3.0 _a_5_) l_1_1_6)) ?x927) (* (* 2.0 l_1_1_15) l_1_1_16))))
 (= (+ ?x37 1.0) 0.0)))))))
(assert
 (let ((?x812 (* 6.0 l_1_1_3)))
 (let ((?x811 (* l_1_1_20 l_1_1_20)))
 (let ((?x839 (* l_1_1_19 l_1_1_19)))
 (let ((?x680 (* l_1_1_18 l_1_1_18)))
 (let ((?x24 (* _a_4_ l_1_1_9)))
 (let ((?x837 (- (- (- (* (- _a_4_) l_1_1_11) (* _a_4_ l_1_1_2)) ?x24) (* l_1_1_1 (+ (* (* 2.0 _a_0_) _a_4_) (* _a_3_ _a_3_))))))
 (let ((?x840 (- (- (- ?x837 (* l_1_1_13 (- _a_0_ (* 3.0 _a_4_)))) ?x680) ?x839)))
 (let ((?x815 (- (- (+ (- ?x840 ?x811) ?x812) l_1_1_4) (* l_1_1_6 (- _a_0_ (* 3.0 _a_4_))))))
 (= (- (- (- ?x815 l_1_1_7) l_1_1_8) (/ 1.0 5.0)) 0.0))))))))))
(assert
 (let ((?x812 (* 6.0 l_1_1_3)))
 (let ((?x356 (* l_1_1_15 l_1_1_15)))
 (let ((?x452 (* _a_1_ l_1_1_9)))
 (let ((?x345 (- (- (- (* (- _a_1_) l_1_1_11) (* _a_1_ l_1_1_2)) ?x452) (* l_1_1_1 (+ (* (* 2.0 _a_0_) _a_1_) (* _a_5_ _a_5_))))))
 (let ((?x359 (+ (- (- ?x345 (* l_1_1_13 (- _a_0_ (* 3.0 _a_1_)))) ?x356) ?x812)))
 (let ((?x364 (- (- (- ?x359 l_1_1_4) (* l_1_1_6 (- _a_0_ (* 3.0 _a_1_)))) l_1_1_7)))
 (= (- ?x364 l_1_1_8) 0.0))))))))
(assert
 (let ((?x187 (+ (* (* 2.0 _a_0_) _a_2_) (* (* 2.0 _a_3_) _a_5_))))
 (let ((?x184 (* _a_2_ l_1_1_9)))
 (let ((?x181 (* _a_2_ l_1_1_2)))
 (let ((?x21 (- (+ (* (- _a_2_) l_1_1_11) (* (* 3.0 _a_2_) l_1_1_13)) ?x181)))
 (let ((?x189 (- (- (+ ?x21 (* (* 3.0 _a_2_) l_1_1_6)) ?x184) (* l_1_1_1 ?x187))))
 (= (- ?x189 (* (* 2.0 l_1_1_15) l_1_1_18)) 0.0)))))))
(assert
 (let ((?x1270 (* _a_3_ l_1_1_9)))
 (let ((?x1258 (* _a_3_ l_1_1_2)))
 (let ((?x1235 (* _a_3_ l_1_1_11)))
 (let ((?x1253 (+ (- (* (* (* (- 2.0) _a_0_) _a_3_) l_1_1_1) ?x1235) (* (* 3.0 _a_3_) l_1_1_13))))
 (let ((?x155 (- (- (+ (- ?x1253 ?x1258) (* (* 3.0 _a_3_) l_1_1_6)) ?x1270) (* (* 2.0 l_1_1_16) l_1_1_18))))
 (= (- ?x155 (* (* 2.0 l_1_1_17) l_1_1_19)) 0.0)))))))
(assert
 (let ((?x852 (- (- (* (- _a_1_) l_1_1_13) (* _a_1_ l_1_1_6)) (* (* l_1_1_1 _a_1_) _a_1_))))
 (= (- ?x852 l_1_1_3) 0.0)))
(assert
 (let ((?x146 (* _a_2_ l_1_1_6)))
 (let ((?x196 (* _a_2_ l_1_1_13)))
 (= (- (- (* (* (* (- 2.0) _a_1_) _a_2_) l_1_1_1) ?x196) ?x146) 0.0))))
(assert
 (let ((?x1547 (+ (* (* 2.0 _a_1_) _a_3_) (* (* 2.0 _a_2_) _a_5_))))
 (let ((?x1536 (- (- (* (- _a_3_) l_1_1_13) (* _a_3_ l_1_1_6)) (* l_1_1_1 ?x1547))))
 (= ?x1536 0.0))))
(assert
 (let ((?x229 (* 2.0 l_1_1_3)))
 (let ((?x429 (* _a_2_ _a_2_)))
 (let ((?x226 (+ (* (* 2.0 _a_1_) _a_4_) ?x429)))
 (let ((?x1440 (- (- (* (- l_1_1_1) ?x226) (* l_1_1_13 (+ _a_1_ _a_4_))) ?x229)))
 (= (- ?x1440 (* l_1_1_6 (+ _a_1_ _a_4_))) 0.0))))))
(assert
 (let ((?x895 (* _a_5_ l_1_1_6)))
 (let ((?x898 (* _a_5_ l_1_1_13)))
 (= (- (- (* (* (* (- 2.0) _a_1_) _a_5_) l_1_1_1) ?x898) ?x895) 0.0))))
(assert
 (let ((?x198 (+ (* (* 2.0 _a_2_) _a_3_) (* (* 2.0 _a_4_) _a_5_))))
 (let ((?x203 (- (- (* (- _a_5_) l_1_1_13) (* _a_5_ l_1_1_6)) (* l_1_1_1 ?x198))))
 (= ?x203 0.0))))
(assert
 (let ((?x146 (* _a_2_ l_1_1_6)))
 (let ((?x196 (* _a_2_ l_1_1_13)))
 (= (- (- (* (* (* (- 2.0) _a_2_) _a_4_) l_1_1_1) ?x196) ?x146) 0.0))))
(assert
 (let ((?x570 (* _a_3_ l_1_1_6)))
 (let ((?x172 (* _a_3_ l_1_1_13)))
 (= (- (- (* (* (* (- 2.0) _a_3_) _a_4_) l_1_1_1) ?x172) ?x570) 0.0))))
(assert
 (let ((?x474 (- (- (* (- _a_4_) l_1_1_13) (* _a_4_ l_1_1_6)) (* (* l_1_1_1 _a_4_) _a_4_))))
 (= (- ?x474 l_1_1_3) 0.0)))
(assert
 (>= l_1_1_1 0.0))
(assert
 (>= l_1_1_2 0.0))
(assert
 (>= l_1_1_3 0.0))
(assert
 (>= l_1_1_4 0.0))
(assert
 (>= l_1_1_5 0.0))
(assert
 (>= l_1_1_6 0.0))
(assert
 (>= l_1_1_7 0.0))
(assert
 (>= l_1_1_8 0.0))
(assert
 (>= l_1_1_9 0.0))
(assert
 (>= l_1_1_10 0.0))
(assert
 (>= l_1_1_11 0.0))
(assert
 (>= l_1_1_12 0.0))
(assert
 (>= l_1_1_13 0.0))
(assert
 (>= l_1_1_14 0.0))
(assert
 (>= l_1_1_15 0.0))
(assert
 (>= l_1_1_17 0.0))
(assert
 (>= l_1_1_20 0.0))
(assert
 (let ((?x986 (* 3.0 l_1_2_8)))
 (let ((?x951 (* 9.0 l_1_2_4)))
 (let ((?x931 (* l_1_2_17 l_1_2_17)))
 (let ((?x929 (* l_1_2_16 l_1_2_16)))
 (let ((?x783 (* 3.0 l_1_2_11)))
 (let ((?x781 (* 3.0 l_1_2_1)))
 (let ((?x1260 (* 1.0 _a_2_)))
 (let ((?x1074 (* _a_0_ l_1_2_9)))
 (let ((?x868 (* _a_0_ l_1_2_5)))
 (let ((?x867 (- (- (* (- _a_0_) l_1_2_10) (* (* 3.0 _a_0_) l_1_2_2)) (* (* 3.0 _a_0_) l_1_2_3))))
 (let ((?x775 (- (- (+ (+ (- (- ?x867 ?x868) ?x1074) _a_0_) (* 1.0 _a_1_)) ?x1260) (* 1.0 _a_3_))))
 (let ((?x97 (- (- (+ (+ ?x775 (* 1.0 _a_4_)) (* 1.0 _a_5_)) ?x781) ?x783)))
 (let ((?x945 (- (- (- (- (- (- ?x97 l_1_2_12) l_1_2_13) l_1_2_14) ?x929) ?x931) ?x951)))
 (= (- (- (- ?x945 l_1_2_6) (* (* l_1_2_7 _a_0_) _a_0_)) ?x986) 0.0)))))))))))))))
(assert
 (let ((?x576 (* 2.0 l_1_2_4)))
 (let ((?x984 (* 4.0 _a_1_)))
 (let ((?x995 (+ ?x984 _a_2_)))
 (let ((?x575 (- (- ?x995 (* l_1_2_2 (- (- _a_1_) _a_4_))) (* l_1_2_3 (- (- _a_1_) _a_4_)))))
 (let ((?x1277 (- (- ?x575 ?x576) (* l_1_2_7 (+ (* (* 2.0 _a_1_) _a_4_) (* _a_2_ _a_2_))))))
 (= ?x1277 0.0)))))))
(assert
 (let ((?x747 (* _a_2_ l_1_2_3)))
 (let ((?x1310 (* _a_2_ l_1_2_2)))
 (let ((?x1311 (+ (+ (* (* (* (- 2.0) _a_1_) _a_2_) l_1_2_7) (* 4.0 _a_1_)) ?x1310)))
 (= (+ ?x1311 ?x747) 0.0)))))
(assert
 (let ((?x187 (+ (* (* 2.0 _a_0_) _a_2_) (* (* 2.0 _a_3_) _a_5_))))
 (let ((?x1399 (* 2.0 _a_5_)))
 (let ((?x1538 (* 2.0 _a_2_)))
 (let ((?x829 (* _a_2_ l_1_2_9)))
 (let ((?x828 (* _a_2_ l_1_2_5)))
 (let ((?x819 (- (- (* 4.0 _a_1_) (* _a_2_ l_1_2_10)) (* (* 3.0 _a_2_) l_1_2_2))))
 (let ((?x1355 (- (- (- (- ?x819 (* (* 3.0 _a_2_) l_1_2_3)) ?x828) ?x829) ?x1538)))
 (let ((?x521 (- (- (+ ?x1355 ?x1399) (* (* 2.0 l_1_2_15) l_1_2_18)) (* l_1_2_7 ?x187))))
 (= ?x521 0.0))))))))))
(assert
 (let ((?x119 (- (+ (+ (* _a_1_ l_1_2_2) (* _a_1_ l_1_2_3)) _a_1_) l_1_2_4)))
 (= (- ?x119 (* (* l_1_2_7 _a_1_) _a_1_)) 0.0)))
(assert
 (let ((?x1059 (* 6.0 l_1_2_4)))
 (let ((?x1107 (* l_1_2_15 l_1_2_15)))
 (let ((?x1260 (* 1.0 _a_2_)))
 (let ((?x1229 (* 2.0 _a_1_)))
 (let ((?x101 (* _a_1_ l_1_2_9)))
 (let ((?x102 (+ (- (- (* (- _a_1_) l_1_2_10) (* _a_1_ l_1_2_5)) ?x101) ?x1229)))
 (let ((?x1103 (- (+ (+ (+ (+ (- ?x102 ?x1260) _a_4_) _a_5_) l_1_2_1) l_1_2_11) ?x1107)))
 (let ((?x1058 (- (- ?x1103 (* l_1_2_2 (+ (- _a_0_) (* 3.0 _a_1_)))) (* l_1_2_3 (+ (- _a_0_) (* 3.0 _a_1_))))))
 (let ((?x1349 (- (+ ?x1058 ?x1059) (* l_1_2_7 (+ (* (* 2.0 _a_0_) _a_1_) (* _a_5_ _a_5_))))))
 (= (+ ?x1349 l_1_2_8) 0.0)))))))))))
(assert
 (let ((?x1538 (* 2.0 _a_2_)))
 (let ((?x747 (* _a_2_ l_1_2_3)))
 (let ((?x1310 (* _a_2_ l_1_2_2)))
 (let ((?x1530 (+ (+ (+ (* (* (* (- 2.0) _a_2_) _a_4_) l_1_2_7) ?x1310) ?x747) ?x1538)))
 (= ?x1530 0.0))))))
(assert
 (let ((?x1059 (* 6.0 l_1_2_4)))
 (let ((?x1188 (* l_1_2_20 l_1_2_20)))
 (let ((?x1284 (* l_1_2_19 l_1_2_19)))
 (let ((?x1139 (* l_1_2_18 l_1_2_18)))
 (let ((?x1326 (* 2.0 _a_4_)))
 (let ((?x1450 (* _a_4_ l_1_2_9)))
 (let ((?x1448 (* _a_4_ l_1_2_5)))
 (let ((?x933 (- (- (- (+ (* 1.0 _a_2_) _a_3_) (* _a_4_ l_1_2_10)) ?x1448) ?x1450)))
 (let ((?x1194 (- (- (- (+ (+ (- ?x933 ?x1326) l_1_2_1) l_1_2_11) ?x1139) ?x1284) (* l_1_2_2 (+ (- _a_0_) (* 3.0 _a_4_))))))
 (let ((?x321 (+ (- (- ?x1194 ?x1188) (* l_1_2_3 (+ (- _a_0_) (* 3.0 _a_4_)))) ?x1059)))
 (let ((?x323 (- ?x321 (* l_1_2_7 (+ (* (* 2.0 _a_0_) _a_4_) (* _a_3_ _a_3_))))))
 (= (+ ?x323 l_1_2_8) 0.0)))))))))))))
(assert
 (let ((?x1547 (+ (* (* 2.0 _a_1_) _a_3_) (* (* 2.0 _a_2_) _a_5_))))
 (let ((?x1458 (* _a_3_ l_1_2_3)))
 (let ((?x1446 (- (+ (+ (* 2.0 _a_2_) (* _a_3_ l_1_2_2)) ?x1458) (* l_1_2_7 ?x1547))))
 (= ?x1446 0.0)))))
(assert
 (let ((?x825 (* _a_5_ l_1_2_3)))
 (let ((?x786 (* _a_5_ l_1_2_2)))
 (let ((?x826 (+ (+ (+ (* (* (* (- 2.0) _a_1_) _a_5_) l_1_2_7) _a_2_) ?x786) ?x825)))
 (= ?x826 0.0)))))
(assert
 (let ((?x1336 (* _a_5_ l_1_2_9)))
 (let ((?x1357 (* _a_5_ l_1_2_5)))
 (let ((?x1519 (* _a_5_ l_1_2_10)))
 (let ((?x1326 (* 2.0 _a_4_)))
 (let ((?x1551 (+ (+ (* (* (* (- 2.0) _a_0_) _a_5_) l_1_2_7) (* 1.0 _a_2_)) _a_3_)))
 (let ((?x1401 (- (- (- (- ?x1551 ?x1326) ?x1519) (* (* 3.0 _a_5_) l_1_2_2)) (* (* 3.0 _a_5_) l_1_2_3))))
 (= (- (- (- ?x1401 ?x1357) ?x1336) (* (* 2.0 l_1_2_15) l_1_2_16)) 0.0))))))))
(assert
 (let ((?x606 (- (+ (+ (* _a_4_ l_1_2_2) (* _a_4_ l_1_2_3)) _a_4_) l_1_2_4)))
 (= (- ?x606 (* (* l_1_2_7 _a_4_) _a_4_)) 0.0)))
(assert
 (let ((?x198 (+ (* (* 2.0 _a_2_) _a_3_) (* (* 2.0 _a_4_) _a_5_))))
 (let ((?x825 (* _a_5_ l_1_2_3)))
 (let ((?x341 (- (+ (+ (* 2.0 _a_4_) (* _a_5_ l_1_2_2)) ?x825) (* l_1_2_7 ?x198))))
 (= ?x341 0.0)))))
(assert
 (let ((?x75 (* _a_3_ l_1_2_9)))
 (let ((?x77 (* _a_3_ l_1_2_5)))
 (let ((?x85 (* _a_3_ l_1_2_10)))
 (let ((?x81 (- (- (* (* (* (- 2.0) _a_0_) _a_3_) l_1_2_7) ?x85) (* (* 3.0 _a_3_) l_1_2_2))))
 (let ((?x1564 (- (- (- (- ?x81 (* (* 3.0 _a_3_) l_1_2_3)) ?x77) ?x75) (* (* 2.0 l_1_2_16) l_1_2_18))))
 (= (- ?x1564 (* (* 2.0 l_1_2_17) l_1_2_19)) 0.0)))))))
(assert
 (let ((?x1458 (* _a_3_ l_1_2_3)))
 (let ((?x601 (* _a_3_ l_1_2_2)))
 (= (+ (+ (* (* (* (- 2.0) _a_3_) _a_4_) l_1_2_7) ?x601) ?x1458) 0.0))))
(assert
 (>= l_1_2_1 0.0))
(assert
 (>= l_1_2_2 0.0))
(assert
 (>= l_1_2_3 0.0))
(assert
 (>= l_1_2_4 0.0))
(assert
 (>= l_1_2_5 0.0))
(assert
 (>= l_1_2_6 0.0))
(assert
 (>= l_1_2_7 0.0))
(assert
 (>= l_1_2_8 0.0))
(assert
 (>= l_1_2_9 0.0))
(assert
 (>= l_1_2_10 0.0))
(assert
 (>= l_1_2_11 0.0))
(assert
 (>= l_1_2_12 0.0))
(assert
 (>= l_1_2_13 0.0))
(assert
 (>= l_1_2_14 0.0))
(assert
 (>= l_1_2_15 0.0))
(assert
 (>= l_1_2_17 0.0))
(assert
 (>= l_1_2_20 0.0))
(check-sat)
(get-model)